c A SAT instance generated from a 3-CNF formula that had 30 clauses and 5 variables
p cnf 5 30
-1 -3 5 0
-1 -3 -5 0
-3 4 -1 0
4 -1 -2 0
-1 5 -3 0
5 4 3 0
1 5 4 0
5 2 3 0
3 -1 5 0
-1 -4 -3 0
4 3 -5 0
-5 1 4 0
-3 1 -2 0
-1 2 -5 0
-1 5 2 0
-5 -3 -2 0
2 -3 5 0
5 -2 4 0
5 -2 -3 0
3 5 2 0
-3 4 2 0
2 -1 -5 0
1 -5 -2 0
5 -1 -3 0
-1 -4 3 0
5 -4 -1 0
3 4 -1 0
4 1 2 0
5 3 -2 0
5 -2 -1 0
%
0

49 46 52 95 19
